%chk=.chk
#P B3LYP/6-31G** EmpiricalDispersion=GD3BJ



0 1

