%CPU=0-35
%Mem=144GB
%chk=Y6.chk
#P wB97XD/6-31G* SCF=NoVarAcc

Optimized at wB97X-D/6-31G* and tested frequency

0 1
 C                  0.01380353    0.71822883    3.68419468
 C                 -0.05641060    1.41608679    2.43578091
 C                 -0.10512184    0.71403155    1.21386214
 C                  0.10512184   -0.71403155    1.21386214
 C                  0.05641060   -1.41608679    2.43578091
 C                 -0.01380353   -0.71822883    3.68419468
 C                 -0.29721097    2.77066988    2.13576934
 C                 -0.52968407    2.85177810    0.77102890
 N                 -0.41999441    1.60271151    0.19802558
 N                  0.41999441   -1.60271151    0.19802558
 C                  0.52968407   -2.85177810    0.77102890
 C                  0.29721097   -2.77066988    2.13576934
 N                 -0.01979571   -1.25262077    4.89264789
 S                  0.00000000    0.00000000    5.95457869
 N                  0.01979571    1.25262077    4.89264789
 S                 -0.46327590    4.28683918    2.96633230
 C                 -0.86595504    5.04554736    1.43177570
 C                 -0.86226331    4.16418356    0.35174003
 C                  0.86226331   -4.16418356    0.35174003
 C                  0.86595504   -5.04554736    1.43177570
 S                  0.46327590   -4.28683918    2.96633230
 C                 -1.18540031    6.36834342    1.09008880
 C                 -1.42599970    6.49154434   -0.28945006
 S                 -1.24989701    4.94385998   -1.12976507
 S                  1.24989701   -4.94385998   -1.12976507
 C                  1.42599970   -6.49154434   -0.28945006
 C                  1.18540031   -6.36834342    1.09008880
 C                 -1.74242101    7.75105993   -0.86082858
 C                  1.74242101   -7.75105993   -0.86082858
 C                  2.00646587   -8.19440616   -2.13189153
 C                 -2.00646587    8.19440616   -2.13189153
 C                 -2.06609947    7.36447884   -3.35264609
 C                 -2.42511587    8.27236003   -4.46546675
 C                 -2.57373451    9.57451910   -3.98365336
 C                 -2.30540174    9.57810333   -2.51982777
 C                  2.30540174   -9.57810333   -2.51982777
 C                  2.57373451   -9.57451910   -3.98365336
 C                  2.42511587   -8.27236003   -4.46546675
 C                  2.06609947   -7.36447884   -3.35264609
 C                 -2.60262454    7.93248695   -5.79636840
 C                 -2.94388799    8.95054363   -6.66709130
 C                 -3.09901829   10.26092203   -6.20262740
 C                 -2.91923862   10.59622223   -4.87072225
 C                  2.91923862  -10.59622223   -4.87072225
 C                  3.09901829  -10.26092203   -6.20262740
 C                  2.94388799   -8.95054363   -6.66709130
 C                  2.60262454   -7.93248695   -5.79636840
 O                 -1.87229288    6.16702599   -3.45910573
 C                 -2.33113301   10.70151647   -1.73312372
 O                  1.87229288   -6.16702599   -3.45910573
 C                  2.33113301  -10.70151647   -1.73312372
 F                 -3.13272714    8.70774649   -7.96108070
 F                 -3.43013925   11.20308010   -7.08174311
 F                  3.13272714   -8.70774649   -7.96108070
 F                  3.43013925  -11.20308010   -7.08174311
 C                 -2.04587322   10.70971128   -0.33191313
 N                 -1.82011313   10.75779511    0.80570489
 C                 -2.64139057   12.00463263   -2.23612307
 N                 -2.88904746   13.07460637   -2.61033075
 C                  2.64139057  -12.00463263   -2.23612307
 N                  2.88904746  -13.07460637   -2.61033075
 C                  2.04587322  -10.70971128   -0.33191313
 N                  1.82011313  -10.75779511    0.80570489
 H                 -1.77157550    8.51462736   -0.09374707
 H                  1.77157550   -8.51462736   -0.09374707
 H                 -2.48016348    6.91236893   -6.14304088
 H                 -3.05618717   11.62996509   -4.58316121
 H                  3.05618717  -11.62996509   -4.58316121
 H                  2.48016348   -6.91236893   -6.14304088
 C                 -1.18450023    7.48665655    2.09466510
 H                 -1.99920224    8.19418875    1.90678946
 H                 -1.37667851    7.06237997    3.08763158
 C                  1.18450023   -7.48665655    2.09466510
 H                  1.99920224   -8.19418875    1.90678946
 H                  1.37667851   -7.06237997    3.08763158
 C                  0.15240374    8.24640565    2.11857881
 H                  0.30146514    8.73756857    1.14849410
 H                  0.97507776    7.52921690    2.23783727
 C                 -0.15240374   -8.24640565    2.11857881
 H                 -0.30146514   -8.73756857    1.14849410
 H                 -0.97507776   -7.52921690    2.23783727
 C                  0.20168191    9.29087652    3.23108775
 H                  0.11481845    8.78941248    4.20554035
 H                 -0.66528284    9.95598367    3.13519023
 C                 -0.20168191   -9.29087652    3.23108775
 H                 -0.11481845   -8.78941248    4.20554035
 H                  0.66528284   -9.95598367    3.13519023
 C                  1.48088227   10.12563489    3.19714022
 H                  2.35589675    9.46256069    3.25799262
 H                  1.54692198   10.63823686    2.22731894
 C                 -1.48088227  -10.12563489    3.19714022
 H                 -2.35589675   -9.46256069    3.25799262
 H                 -1.54692198  -10.63823686    2.22731894
 C                  1.55029888   11.16075570    4.31933194
 H                  1.48638896   10.64961974    5.29059674
 H                  0.67135635   11.81761389    4.25943745
 C                 -1.55029888  -11.16075570    4.31933194
 H                 -0.67135635  -11.81761389    4.25943745
 H                 -1.48638896  -10.64961974    5.29059674
 C                  2.82046042   12.00984317    4.27777482
 H                  3.69985301   11.35210436    4.33166135
 H                  2.88158733   12.52341228    3.30776186
 C                 -2.82046042  -12.00984317    4.27777482
 H                 -3.69985301  -11.35210436    4.33166135
 H                 -2.88158733  -12.52341228    3.30776186
 C                  2.89328886   13.04316786    5.40166239
 H                  2.83373401   12.52948896    6.37185522
 H                  2.01298248   13.69939456    5.34891183
 C                 -2.89328886  -13.04316786    5.40166239
 H                 -2.83373401  -12.52948896    6.37185522
 H                 -2.01298248  -13.69939456    5.34891183
 C                  4.16167528   13.89500432    5.35824641
 H                  5.04211438   13.23840537    5.40840972
 H                  4.21978825   14.41020615    4.38880356
 C                 -4.16167528  -13.89500432    5.35824641
 H                 -5.04211438  -13.23840537    5.40840972
 H                 -4.21978825  -14.41020615    4.38880356
 C                  4.23642361   14.92654581    6.48361258
 H                  3.35579974   15.58297124    6.43440270
 H                  4.17918231   14.41165893    7.45344705
 C                 -4.23642361  -14.92654581    6.48361258
 H                 -4.17918231  -14.41165893    7.45344705
 H                 -3.35579974  -15.58297124    6.43440270
 C                  5.50426758   15.78002288    6.44023365
 H                  6.38336604   15.12343035    6.48880064
 H                  5.55975507   16.29501274    5.47178213
 C                 -5.50426758  -15.78002288    6.44023365
 H                 -5.55975507  -16.29501274    5.47178213
 H                 -6.38336604  -15.12343035    6.48880064
 C                  5.56951282   16.80645101    7.56979461
 H                  6.48548143   17.40404044    7.51629489
 H                  5.54668043   16.31442862    8.54911553
 H                  4.71715052   17.49424146    7.52485619
 C                 -5.56951282  -16.80645101    7.56979461
 H                 -4.71715052  -17.49424146    7.52485619
 H                 -6.48548143  -17.40404044    7.51629489
 H                 -5.54668043  -16.31442862    8.54911553
 C                  1.02613792   -1.31623936   -1.10270546
 H                  0.28176473   -0.85018495   -1.74285574
 H                  1.24457153   -2.28503595   -1.56123824
 C                 -1.02613792    1.31623936   -1.10270546
 H                 -0.28176473    0.85018495   -1.74285574
 H                 -1.24457153    2.28503595   -1.56123824
 C                 -2.32311008    0.49381207   -1.05377457
 H                 -2.09101543   -0.49245608   -0.62492119
 C                  2.32311008   -0.49381207   -1.05377457
 H                  2.09101543    0.49245608   -0.62492119
 C                 -3.43213301    1.15362122   -0.20795765
 H                 -3.45595501    2.23105756   -0.42474875
 H                 -4.38881931    0.75753225   -0.56922345
 C                  3.43213301   -1.15362122   -0.20795765
 H                  3.45595501   -2.23105756   -0.42474875
 H                  4.38881931   -0.75753225   -0.56922345
 C                 -3.37573716    0.92797058    1.30432099
 H                 -2.59679796    1.51637953    1.79242571
 H                 -3.19923779   -0.12799959    1.53981168
 H                 -4.32799832    1.21551965    1.76108085
 C                  3.37573716   -0.92797058    1.30432099
 H                  2.59679796   -1.51637953    1.79242571
 H                  3.19923779    0.12799959    1.53981168
 H                  4.32799832   -1.21551965    1.76108085
 C                 -2.84690497    0.27570212   -2.48626419
 H                 -3.14408357    1.24646513   -2.90958478
 H                 -3.76835978   -0.31547394   -2.41047934
 C                  2.84690497   -0.27570212   -2.48626419
 H                  3.14408357   -1.24646513   -2.90958478
 H                  3.76835978    0.31547394   -2.41047934
 C                 -1.89967243   -0.43273102   -3.45408513
 H                 -1.49947470   -1.33969582   -2.97681227
 H                 -1.04066623    0.20959176   -3.68507755
 C                  1.89967243    0.43273102   -3.45408513
 H                  1.49947470    1.33969582   -2.97681227
 H                  1.04066623   -0.20959176   -3.68507755
 C                 -2.57091338   -0.82501393   -4.77058529
 H                 -2.97151801    0.07544658   -5.25417273
 H                 -3.43250101   -1.47147817   -4.55879720
 C                  2.57091338    0.82501393   -4.77058529
 H                  2.97151801   -0.07544658   -5.25417273
 H                  3.43250101    1.47147817   -4.55879720
 C                 -1.61471801   -1.54091669   -5.72242900
 H                 -1.22377844   -2.45939263   -5.26951007
 H                 -0.75805463   -0.90435785   -5.97326076
 H                 -2.11203474   -1.81400900   -6.65832707
 C                  1.61471801    1.54091669   -5.72242900
 H                  1.22377844    2.45939263   -5.26951007
 H                  0.75805463    0.90435785   -5.97326076
 H                  2.11203474    1.81400900   -6.65832707

